\ENCODING=ISO-8859-1
\Problem name: ilog.cplex

Minimize
 obj: y(0)#0 + y(1)#1 + y(2)#2 + y(3)#3 + y(4)#4 + y(5)#5 + y(6)#6 + y(7)#7
      + y(8)#8 + y(9)#9 + y(10)#10
Subject To
 c1:  x(0)(0)#11 + x(0)(1)#12 + x(0)(2)#13 + x(0)(3)#14 + x(0)(4)#15
      + x(0)(5)#16 + x(0)(6)#17 + x(0)(7)#18 + x(0)(8)#19 + x(0)(9)#20
      + x(0)(10)#21  = 1
 c3:  x(1)(0)#22 + x(1)(1)#23 + x(1)(2)#24 + x(1)(3)#25 + x(1)(4)#26
      + x(1)(5)#27 + x(1)(6)#28 + x(1)(7)#29 + x(1)(8)#30 + x(1)(9)#31
      + x(1)(10)#32  = 1
 c5:  x(2)(0)#33 + x(2)(1)#34 + x(2)(2)#35 + x(2)(3)#36 + x(2)(4)#37
      + x(2)(5)#38 + x(2)(6)#39 + x(2)(7)#40 + x(2)(8)#41 + x(2)(9)#42
      + x(2)(10)#43  = 1
 c7:  x(3)(0)#44 + x(3)(1)#45 + x(3)(2)#46 + x(3)(3)#47 + x(3)(4)#48
      + x(3)(5)#49 + x(3)(6)#50 + x(3)(7)#51 + x(3)(8)#52 + x(3)(9)#53
      + x(3)(10)#54  = 1
 c9:  x(4)(0)#55 + x(4)(1)#56 + x(4)(2)#57 + x(4)(3)#58 + x(4)(4)#59
      + x(4)(5)#60 + x(4)(6)#61 + x(4)(7)#62 + x(4)(8)#63 + x(4)(9)#64
      + x(4)(10)#65  = 1
 c11: x(5)(0)#66 + x(5)(1)#67 + x(5)(2)#68 + x(5)(3)#69 + x(5)(4)#70
      + x(5)(5)#71 + x(5)(6)#72 + x(5)(7)#73 + x(5)(8)#74 + x(5)(9)#75
      + x(5)(10)#76  = 1
 c13: x(6)(0)#77 + x(6)(1)#78 + x(6)(2)#79 + x(6)(3)#80 + x(6)(4)#81
      + x(6)(5)#82 + x(6)(6)#83 + x(6)(7)#84 + x(6)(8)#85 + x(6)(9)#86
      + x(6)(10)#87  = 1
 c15: x(7)(0)#88 + x(7)(1)#89 + x(7)(2)#90 + x(7)(3)#91 + x(7)(4)#92
      + x(7)(5)#93 + x(7)(6)#94 + x(7)(7)#95 + x(7)(8)#96 + x(7)(9)#97
      + x(7)(10)#98  = 1
 c17: x(8)(0)#99 + x(8)(1)#100 + x(8)(2)#101 + x(8)(3)#102 + x(8)(4)#103
      + x(8)(5)#104 + x(8)(6)#105 + x(8)(7)#106 + x(8)(8)#107 + x(8)(9)#108
      + x(8)(10)#109  = 1
 c19: x(9)(0)#110 + x(9)(1)#111 + x(9)(2)#112 + x(9)(3)#113 + x(9)(4)#114
      + x(9)(5)#115 + x(9)(6)#116 + x(9)(7)#117 + x(9)(8)#118 + x(9)(9)#119
      + x(9)(10)#120  = 1
 c21: x(10)(0)#121 + x(10)(1)#122 + x(10)(2)#123 + x(10)(3)#124 + x(10)(4)#125
      + x(10)(5)#126 + x(10)(6)#127 + x(10)(7)#128 + x(10)(8)#129
      + x(10)(9)#130 + x(10)(10)#131  = 1
 c23: - 100 y(0)#0 + 48 x(0)(0)#11 + 30 x(1)(0)#22 + 19 x(2)(0)#33
      + 36 x(3)(0)#44 + 36 x(4)(0)#55 + 27 x(5)(0)#66 + 42 x(6)(0)#77
      + 42 x(7)(0)#88 + 36 x(8)(0)#99 + 24 x(9)(0)#110 + 30 x(10)(0)#121 <= 0
 c25: - 100 y(1)#1 + 48 x(0)(1)#12 + 30 x(1)(1)#23 + 19 x(2)(1)#34
      + 36 x(3)(1)#45 + 36 x(4)(1)#56 + 27 x(5)(1)#67 + 42 x(6)(1)#78
      + 42 x(7)(1)#89 + 36 x(8)(1)#100 + 24 x(9)(1)#111 + 30 x(10)(1)#122 <= 0
 c27: - 100 y(2)#2 + 48 x(0)(2)#13 + 30 x(1)(2)#24 + 19 x(2)(2)#35
      + 36 x(3)(2)#46 + 36 x(4)(2)#57 + 27 x(5)(2)#68 + 42 x(6)(2)#79
      + 42 x(7)(2)#90 + 36 x(8)(2)#101 + 24 x(9)(2)#112 + 30 x(10)(2)#123 <= 0
 c29: - 100 y(3)#3 + 48 x(0)(3)#14 + 30 x(1)(3)#25 + 19 x(2)(3)#36
      + 36 x(3)(3)#47 + 36 x(4)(3)#58 + 27 x(5)(3)#69 + 42 x(6)(3)#80
      + 42 x(7)(3)#91 + 36 x(8)(3)#102 + 24 x(9)(3)#113 + 30 x(10)(3)#124 <= 0
 c31: - 100 y(4)#4 + 48 x(0)(4)#15 + 30 x(1)(4)#26 + 19 x(2)(4)#37
      + 36 x(3)(4)#48 + 36 x(4)(4)#59 + 27 x(5)(4)#70 + 42 x(6)(4)#81
      + 42 x(7)(4)#92 + 36 x(8)(4)#103 + 24 x(9)(4)#114 + 30 x(10)(4)#125 <= 0
 c33: - 100 y(5)#5 + 48 x(0)(5)#16 + 30 x(1)(5)#27 + 19 x(2)(5)#38
      + 36 x(3)(5)#49 + 36 x(4)(5)#60 + 27 x(5)(5)#71 + 42 x(6)(5)#82
      + 42 x(7)(5)#93 + 36 x(8)(5)#104 + 24 x(9)(5)#115 + 30 x(10)(5)#126 <= 0
 c35: - 100 y(6)#6 + 48 x(0)(6)#17 + 30 x(1)(6)#28 + 19 x(2)(6)#39
      + 36 x(3)(6)#50 + 36 x(4)(6)#61 + 27 x(5)(6)#72 + 42 x(6)(6)#83
      + 42 x(7)(6)#94 + 36 x(8)(6)#105 + 24 x(9)(6)#116 + 30 x(10)(6)#127 <= 0
 c37: - 100 y(7)#7 + 48 x(0)(7)#18 + 30 x(1)(7)#29 + 19 x(2)(7)#40
      + 36 x(3)(7)#51 + 36 x(4)(7)#62 + 27 x(5)(7)#73 + 42 x(6)(7)#84
      + 42 x(7)(7)#95 + 36 x(8)(7)#106 + 24 x(9)(7)#117 + 30 x(10)(7)#128 <= 0
 c39: - 100 y(8)#8 + 48 x(0)(8)#19 + 30 x(1)(8)#30 + 19 x(2)(8)#41
      + 36 x(3)(8)#52 + 36 x(4)(8)#63 + 27 x(5)(8)#74 + 42 x(6)(8)#85
      + 42 x(7)(8)#96 + 36 x(8)(8)#107 + 24 x(9)(8)#118 + 30 x(10)(8)#129 <= 0
 c41: - 100 y(9)#9 + 48 x(0)(9)#20 + 30 x(1)(9)#31 + 19 x(2)(9)#42
      + 36 x(3)(9)#53 + 36 x(4)(9)#64 + 27 x(5)(9)#75 + 42 x(6)(9)#86
      + 42 x(7)(9)#97 + 36 x(8)(9)#108 + 24 x(9)(9)#119 + 30 x(10)(9)#130 <= 0
 c43: - 100 y(10)#10 + 48 x(0)(10)#21 + 30 x(1)(10)#32 + 19 x(2)(10)#43
      + 36 x(3)(10)#54 + 36 x(4)(10)#65 + 27 x(5)(10)#76 + 42 x(6)(10)#87
      + 42 x(7)(10)#98 + 36 x(8)(10)#109 + 24 x(9)(10)#120 + 30 x(10)(10)#131
      <= 0
Bounds
 0 <= y(0)#0 <= 1
 0 <= y(1)#1 <= 1
 0 <= y(2)#2 <= 1
 0 <= y(3)#3 <= 1
 0 <= y(4)#4 <= 1
 0 <= y(5)#5 <= 1
 0 <= y(6)#6 <= 1
 0 <= y(7)#7 <= 1
 0 <= y(8)#8 <= 1
 0 <= y(9)#9 <= 1
 0 <= y(10)#10 <= 1
 0 <= x(0)(0)#11 <= 1
 0 <= x(0)(1)#12 <= 1
 0 <= x(0)(2)#13 <= 1
 0 <= x(0)(3)#14 <= 1
 0 <= x(0)(4)#15 <= 1
 0 <= x(0)(5)#16 <= 1
 0 <= x(0)(6)#17 <= 1
 0 <= x(0)(7)#18 <= 1
 0 <= x(0)(8)#19 <= 1
 0 <= x(0)(9)#20 <= 1
 0 <= x(0)(10)#21 <= 1
 0 <= x(1)(0)#22 <= 1
 0 <= x(1)(1)#23 <= 1
 0 <= x(1)(2)#24 <= 1
 0 <= x(1)(3)#25 <= 1
 0 <= x(1)(4)#26 <= 1
 0 <= x(1)(5)#27 <= 1
 0 <= x(1)(6)#28 <= 1
 0 <= x(1)(7)#29 <= 1
 0 <= x(1)(8)#30 <= 1
 0 <= x(1)(9)#31 <= 1
 0 <= x(1)(10)#32 <= 1
 0 <= x(2)(0)#33 <= 1
 0 <= x(2)(1)#34 <= 1
 0 <= x(2)(2)#35 <= 1
 0 <= x(2)(3)#36 <= 1
 0 <= x(2)(4)#37 <= 1
 0 <= x(2)(5)#38 <= 1
 0 <= x(2)(6)#39 <= 1
 0 <= x(2)(7)#40 <= 1
 0 <= x(2)(8)#41 <= 1
 0 <= x(2)(9)#42 <= 1
 0 <= x(2)(10)#43 <= 1
 0 <= x(3)(0)#44 <= 1
 0 <= x(3)(1)#45 <= 1
 0 <= x(3)(2)#46 <= 1
 0 <= x(3)(3)#47 <= 1
 0 <= x(3)(4)#48 <= 1
 0 <= x(3)(5)#49 <= 1
 0 <= x(3)(6)#50 <= 1
 0 <= x(3)(7)#51 <= 1
 0 <= x(3)(8)#52 <= 1
 0 <= x(3)(9)#53 <= 1
 0 <= x(3)(10)#54 <= 1
 0 <= x(4)(0)#55 <= 1
 0 <= x(4)(1)#56 <= 1
 0 <= x(4)(2)#57 <= 1
 0 <= x(4)(3)#58 <= 1
 0 <= x(4)(4)#59 <= 1
 0 <= x(4)(5)#60 <= 1
 0 <= x(4)(6)#61 <= 1
 0 <= x(4)(7)#62 <= 1
 0 <= x(4)(8)#63 <= 1
 0 <= x(4)(9)#64 <= 1
 0 <= x(4)(10)#65 <= 1
 0 <= x(5)(0)#66 <= 1
 0 <= x(5)(1)#67 <= 1
 0 <= x(5)(2)#68 <= 1
 0 <= x(5)(3)#69 <= 1
 0 <= x(5)(4)#70 <= 1
 0 <= x(5)(5)#71 <= 1
 0 <= x(5)(6)#72 <= 1
 0 <= x(5)(7)#73 <= 1
 0 <= x(5)(8)#74 <= 1
 0 <= x(5)(9)#75 <= 1
 0 <= x(5)(10)#76 <= 1
 0 <= x(6)(0)#77 <= 1
 0 <= x(6)(1)#78 <= 1
 0 <= x(6)(2)#79 <= 1
 0 <= x(6)(3)#80 <= 1
 0 <= x(6)(4)#81 <= 1
 0 <= x(6)(5)#82 <= 1
 0 <= x(6)(6)#83 <= 1
 0 <= x(6)(7)#84 <= 1
 0 <= x(6)(8)#85 <= 1
 0 <= x(6)(9)#86 <= 1
 0 <= x(6)(10)#87 <= 1
 0 <= x(7)(0)#88 <= 1
 0 <= x(7)(1)#89 <= 1
 0 <= x(7)(2)#90 <= 1
 0 <= x(7)(3)#91 <= 1
 0 <= x(7)(4)#92 <= 1
 0 <= x(7)(5)#93 <= 1
 0 <= x(7)(6)#94 <= 1
 0 <= x(7)(7)#95 <= 1
 0 <= x(7)(8)#96 <= 1
 0 <= x(7)(9)#97 <= 1
 0 <= x(7)(10)#98 <= 1
 0 <= x(8)(0)#99 <= 1
 0 <= x(8)(1)#100 <= 1
 0 <= x(8)(2)#101 <= 1
 0 <= x(8)(3)#102 <= 1
 0 <= x(8)(4)#103 <= 1
 0 <= x(8)(5)#104 <= 1
 0 <= x(8)(6)#105 <= 1
 0 <= x(8)(7)#106 <= 1
 0 <= x(8)(8)#107 <= 1
 0 <= x(8)(9)#108 <= 1
 0 <= x(8)(10)#109 <= 1
 0 <= x(9)(0)#110 <= 1
 0 <= x(9)(1)#111 <= 1
 0 <= x(9)(2)#112 <= 1
 0 <= x(9)(3)#113 <= 1
 0 <= x(9)(4)#114 <= 1
 0 <= x(9)(5)#115 <= 1
 0 <= x(9)(6)#116 <= 1
 0 <= x(9)(7)#117 <= 1
 0 <= x(9)(8)#118 <= 1
 0 <= x(9)(9)#119 <= 1
 0 <= x(9)(10)#120 <= 1
 0 <= x(10)(0)#121 <= 1
 0 <= x(10)(1)#122 <= 1
 0 <= x(10)(2)#123 <= 1
 0 <= x(10)(3)#124 <= 1
 0 <= x(10)(4)#125 <= 1
 0 <= x(10)(5)#126 <= 1
 0 <= x(10)(6)#127 <= 1
 0 <= x(10)(7)#128 <= 1
 0 <= x(10)(8)#129 <= 1
 0 <= x(10)(9)#130 <= 1
 0 <= x(10)(10)#131 <= 1
Generals
 y(0)#0  y(1)#1  y(2)#2  y(3)#3  y(4)#4  y(5)#5  y(6)#6  y(7)#7  y(8)#8 
 y(9)#9  y(10)#10  x(0)(0)#11  x(0)(1)#12  x(0)(2)#13  x(0)(3)#14  x(0)(4)#15 
 x(0)(5)#16  x(0)(6)#17  x(0)(7)#18  x(0)(8)#19  x(0)(9)#20  x(0)(10)#21 
 x(1)(0)#22  x(1)(1)#23  x(1)(2)#24  x(1)(3)#25  x(1)(4)#26  x(1)(5)#27 
 x(1)(6)#28  x(1)(7)#29  x(1)(8)#30  x(1)(9)#31  x(1)(10)#32  x(2)(0)#33 
 x(2)(1)#34  x(2)(2)#35  x(2)(3)#36  x(2)(4)#37  x(2)(5)#38  x(2)(6)#39 
 x(2)(7)#40  x(2)(8)#41  x(2)(9)#42  x(2)(10)#43  x(3)(0)#44  x(3)(1)#45 
 x(3)(2)#46  x(3)(3)#47  x(3)(4)#48  x(3)(5)#49  x(3)(6)#50  x(3)(7)#51 
 x(3)(8)#52  x(3)(9)#53  x(3)(10)#54  x(4)(0)#55  x(4)(1)#56  x(4)(2)#57 
 x(4)(3)#58  x(4)(4)#59  x(4)(5)#60  x(4)(6)#61  x(4)(7)#62  x(4)(8)#63 
 x(4)(9)#64  x(4)(10)#65  x(5)(0)#66  x(5)(1)#67  x(5)(2)#68  x(5)(3)#69 
 x(5)(4)#70  x(5)(5)#71  x(5)(6)#72  x(5)(7)#73  x(5)(8)#74  x(5)(9)#75 
 x(5)(10)#76  x(6)(0)#77  x(6)(1)#78  x(6)(2)#79  x(6)(3)#80  x(6)(4)#81 
 x(6)(5)#82  x(6)(6)#83  x(6)(7)#84  x(6)(8)#85  x(6)(9)#86  x(6)(10)#87 
 x(7)(0)#88  x(7)(1)#89  x(7)(2)#90  x(7)(3)#91  x(7)(4)#92  x(7)(5)#93 
 x(7)(6)#94  x(7)(7)#95  x(7)(8)#96  x(7)(9)#97  x(7)(10)#98  x(8)(0)#99 
 x(8)(1)#100  x(8)(2)#101  x(8)(3)#102  x(8)(4)#103  x(8)(5)#104  x(8)(6)#105 
 x(8)(7)#106  x(8)(8)#107  x(8)(9)#108  x(8)(10)#109  x(9)(0)#110  x(9)(1)#111 
 x(9)(2)#112  x(9)(3)#113  x(9)(4)#114  x(9)(5)#115  x(9)(6)#116  x(9)(7)#117 
 x(9)(8)#118  x(9)(9)#119  x(9)(10)#120  x(10)(0)#121  x(10)(1)#122 
 x(10)(2)#123  x(10)(3)#124  x(10)(4)#125  x(10)(5)#126  x(10)(6)#127 
 x(10)(7)#128  x(10)(8)#129  x(10)(9)#130  x(10)(10)#131 
End
